Al12 Ni4
1.0
5.073653 0.000000 0.000000
0.000000 6.907794 0.000000
0.000000 0.000000 7.689545
Al Ni
12 4
direct
0.916386 0.004689 0.250000 Al
0.360245 0.168778 0.444479 Al
0.360245 0.168778 0.055521 Al
0.860245 0.331222 0.555521 Al
0.139755 0.668778 0.444479 Al
0.639755 0.831222 0.944479 Al
0.139755 0.668778 0.055521 Al
0.639755 0.831222 0.555521 Al
0.860245 0.331222 0.944479 Al
0.583614 0.504689 0.250000 Al
0.083614 0.995311 0.750000 Al
0.416386 0.495311 0.750000 Al
0.445155 0.866950 0.250000 Ni
0.054845 0.366950 0.250000 Ni
0.554845 0.133050 0.750000 Ni
0.945155 0.633050 0.750000 Ni
