Al3 Ni5
1.0
3.908826 -3.484272 0.000000
3.908826 3.484272 0.000000
0.000000 0.000000 3.929287
Al Ni
3 5
direct
0.283443 0.283443 0.499999 Al
0.716557 0.716557 0.499999 Al
0.000000 0.000000 0.000000 Al
0.779195 0.220805 0.499999 Ni
0.220805 0.779195 0.499999 Ni
0.000001 0.500001 0.000000 Ni
0.500001 0.000001 0.000000 Ni
0.500000 0.500000 0.000000 Ni
