Al1
1.0
0.000000 1.913121 1.913121
1.913121 0.000000 1.913121
1.913121 1.913121 0.000000
Al
1
direct
0.000000 0.000000 0.000000 Al
