Al32 Ni24
1.0
-5.964436 5.964436 5.964436
5.964436 -5.964436 5.964436
5.964436 5.964436 -5.964436
Al Ni
32 24
direct
0.000000 0.000000 0.000000 Al
0.500000 0.500000 0.000000 Al
0.000000 0.500000 0.500000 Al
0.500000 0.000000 0.500000 Al
0.500001 0.500001 0.500001 Al
0.000000 0.500001 0.000000 Al
0.000000 0.000000 0.500001 Al
0.500001 0.000000 0.000000 Al
0.250000 0.256765 0.006764 Al
0.750000 0.243236 0.493236 Al
0.256765 0.006764 0.250000 Al
0.243236 0.493236 0.750000 Al
0.006764 0.250000 0.256765 Al
0.493236 0.750000 0.243236 Al
0.243236 0.250000 0.493237 Al
0.256764 0.750000 0.006764 Al
0.250000 0.493237 0.243236 Al
0.750000 0.006764 0.256764 Al
0.493237 0.243236 0.250000 Al
0.006764 0.256764 0.750000 Al
0.750000 0.743237 0.993237 Al
0.250000 0.756765 0.506764 Al
0.743237 0.993237 0.750000 Al
0.756765 0.506764 0.250000 Al
0.993237 0.750000 0.743237 Al
0.506764 0.250000 0.756765 Al
0.756765 0.750000 0.506765 Al
0.743236 0.250000 0.993237 Al
0.750000 0.506765 0.756765 Al
0.250000 0.993237 0.743236 Al
0.506765 0.756765 0.750000 Al
0.993237 0.743236 0.250000 Al
0.250000 0.006621 0.493379 Ni
0.250000 0.743379 0.756621 Ni
0.486758 0.493379 0.743380 Ni
0.013242 0.756622 0.006621 Ni
0.006621 0.493379 0.250000 Ni
0.493379 0.743380 0.486758 Ni
0.756622 0.006621 0.013242 Ni
0.743379 0.756621 0.250000 Ni
0.493379 0.250000 0.006621 Ni
0.006621 0.013242 0.756622 Ni
0.756621 0.250000 0.743379 Ni
0.743380 0.486758 0.493379 Ni
0.750000 0.993380 0.506621 Ni
0.750000 0.256621 0.243379 Ni
0.513242 0.506621 0.256621 Ni
0.986759 0.243379 0.993380 Ni
0.993380 0.506621 0.750000 Ni
0.506621 0.256621 0.513242 Ni
0.243379 0.993380 0.986759 Ni
0.256621 0.243379 0.750000 Ni
0.506621 0.750000 0.993380 Ni
0.993380 0.986759 0.243379 Ni
0.243379 0.750000 0.256621 Ni
0.256621 0.513242 0.506621 Ni
